(declare-const a Real)
(declare-const b Real)
(declare-const c Real)
(assert (= (+ a b c) 3))
(assert (> a 0))
(assert (> b 0))
(assert (> c 0))
(assert (not (<= (+ (* (pow (* (pow a (* 264241152 (pow b 2))) (pow c (* 82165760 (pow a 4)))) (pow (+ (* 82165760 (pow a 4)) (* 88080384 (pow b 2))) -1)) (+ (* -88080384 (pow b 2)) (* -82165760 (pow a 4)))) (* -289406976 a (pow c 4)) (* -289406976 b (pow a 4)) (* -275103744 c (pow b 4)) (* -96468992 a (pow b 4)) (* -96468992 b (pow c 4)) (* -88080384 (pow a 2) (pow c 3)) (* 31104 c (pow (+ (* 2 a) (* 2 b)) 4)) (* 62914560 (pow b 3) (pow c 2)) (* 88080384 (pow a 2) (pow b 3)) (* 88080384 (pow b 2) (pow c 3)) (* 239075328 (pow a 3) (pow c 2)) (* 234881024 a b (pow c 3)) (* 292093952 a c (pow b 3)) (* 292093952 b c (pow a 3))) 0)))
(check-sat)
(get-model)
(exit)